succeed=True
config:eval_tsp="2023-03-30 17:26:26"
config:arch=arch6
config:num_worker=4
config:sample_type=khop2
config:root_path=/nvme/graph-learning-copy/samgraph/
config:dataset=mag240m-homo
config:pipeline=False
config:cache_policy=coll_cache_asymm_link
config:cache_percentage=0.02
config:num_epoch=5
config:batch_size=1000
config:num_hidden=256
config:max_sampling_jobs=1
config:max_copying_jobs=1
config:barriered_epoch=1
config:presample_epoch=4
config:omp_thread_num=40
config:unsupervised=True
config:amp=True
config:rolling=0
config:fanout=[25, 10]
config:lr=0.003
config:dropout=0.5
config:max_num_step=1000
config:validate_configs=False
config:report_acc=0
config:dataset_path=/nvme/graph-learning-copy/samgraph/mag240m-homo
config:workers=['cuda:0', 'cuda:1', 'cuda:2', 'cuda:3']
config:num_fanout=2
config:num_layer=2
config:_run_mode=RunMode.SGNN
config:_log_level=warn
config:_profile_level=3
config:_empty_feat=25
config:_arch=6
config:_sample_type=5
config:_cache_policy=13
test_result:init:input_scale_factor=1.12341
0 :  {link #0 : 1}, {link #1 : 2}, {link #2 : 3},
1 :  {link #0 : 2}, {link #1 : 3}, {link #2 : 0},
2 :  {link #0 : 3}, {link #1 : 0}, {link #2 : 1},
3 :  {link #0 : 0}, {link #1 : 1}, {link #2 : 2},
0 :  {link #0 : 1}, {link #1 : 2}, {link #2 : 3},
1 :  {link #0 : 2}, {link #1 : 3}, {link #2 : 0},
2 :  {link #0 : 3}, {link #1 : 0}, {link #2 : 1},
3 :  {link #0 : 0}, {link #1 : 1}, {link #2 : 2},
0 :  {link #0 : 1}, {link #1 : 2}, {link #2 : 3},
1 :  {link #0 : 2}, {link #1 : 3}, {link #2 : 0},
2 :  {link #0 : 3}, {link #1 : 0}, {link #2 : 1},
3 :  {link #0 : 0}, {link #1 : 1}, {link #2 : 2},
0 :  {link #0 : 1}, {link #1 : 2}, {link #2 : 3},
1 :  {link #0 : 2}, {link #1 : 3}, {link #2 : 0},
2 :  {link #0 : 3}, {link #1 : 0}, {link #2 : 1},
3 :  {link #0 : 0}, {link #1 : 1}, {link #2 : 2},
Set parameter WLSAccessID
Set parameter WLSSecret
Set parameter LicenseID
Set parameter TimeLimit to value 200
Set parameter MIPGap to value 0.05
Set parameter LogFile to value "cppsolver.log"
Set parameter Threads to value 40
Academic license - for non-commercial use only - registered to xiaoniu.sxn@sjtu.edu.cn
Gurobi Optimizer version 9.5.1 build v9.5.1rc2 (linux64)
Thread count: 40 physical cores, 80 logical processors, using up to 40 threads
Academic license - for non-commercial use only - registered to xiaoniu.sxn@sjtu.edu.cn
Optimize a model with 8920 rows, 2912 columns and 27384 nonzeros
Model fingerprint: 0x35c7eed8
Variable types: 5 continuous, 2907 integer (2907 binary)
Coefficient statistics:
  Matrix range     [5e-05, 1e+04]
  Objective range  [1e+00, 1e+00]
  Bounds range     [1e+00, 1e+00]
  RHS range        [1e+00, 8e+03]
Found heuristic solution: objective 18580.982536
Presolve removed 6279 rows and 123 columns
Presolve time: 0.03s
Presolved: 2641 rows, 2789 columns, 10017 nonzeros
Variable types: 1 continuous, 2788 integer (2788 binary)

Root relaxation: objective 9.116420e+03, 2352 iterations, 0.02 seconds (0.01 work units)

    Nodes    |    Current Node    |     Objective Bounds      |     Work
 Expl Unexpl |  Obj  Depth IntInf | Incumbent    BestBd   Gap | It/Node Time

     0     0 9116.42050    0   25 18580.9825 9116.42050  50.9%     -    0s
H    0     0                    9530.8105248 9116.42050  4.35%     -    0s

Explored 1 nodes (3397 simplex iterations) in 0.09 seconds (0.06 work units)
Thread count was 40 (of 80 available processors)

Solution count 2: 9530.81 18581 

Optimal solution found (tolerance 5.00e-02)
Best objective 9.530810524822e+03, best bound 9.116420498001e+03, gap 4.3479%
coll_cache:optimal_local_rate=0.172627,0.148181,0.145906,0.173028,
coll_cache:optimal_remote_rate=0.467114,0.49156,0.493835,0.466713,
coll_cache:optimal_cpu_rate=0.360259,0.360259,0.360259,0.360259,
z=9530.81
test_result:init:feat_nbytes=375030526464
test_result:init:cache_nbytes=7875640320
test_result:init:feat_nbytes=375030526464
test_result:init:cache_nbytes=7875640320
test_result:init:feat_nbytes=375030526464
test_result:init:cache_nbytes=7875640320
test_result:init:feat_nbytes=375030526464
test_result:init:cache_nbytes=7875640320
[CUDA] cuda0: usage: 14.02 GB
[SAM] cuda0 data alloc        : 38.84 MB
[SAM] cuda0 workspace         : 2.50 GB
[SAM] cuda0 workspace reserve : 808.63 MB
[SAM] cuda0 total             : 2.54 GB
    [Step(average) Profiler Level 1 E4 S999]
        L1  sample           0.015783 | send           0.000000
        L1  recv             0.000000 | copy           0.023731 | convert time 0.000488 | train  0.011173
        L1  feature nbytes  709.29 MB | label nbytes    7.81 KB
        L1  id nbytes      0.00 Bytes | graph nbytes 0.00 Bytes
        L1  miss nbytes     262.59 MB | remote nbytes  335.02 MB
        L1  num nodes          484211 | num samples      550552
    [Step(average) Profiler Level 2 E4 S999]
        L2  shuffle     0.000051 | core sample  0.014322 | id remap        0.001139
        L2  graph copy  0.000000 | id copy      0.000000 | cache feat copy 0.023113
        L2  last layer sample time 0.000480 | size 24933.777444
    [Step(average) Profiler Level 3 E4 S999]
        L3  khop sample coo  0.014064 | khop sort coo      0.000000 | khop count edge     0.000036 | khop compact edge 0.000163
        L3  walk sample coo  0.000000 | walk topk total    0.000000 | walk topk step1     0.000000 | walk topk step2   0.000000
        L3  walk topk step3  0.000000 | walk topk step4    0.000000 | walk topk step5     0.000000
        L3  walk topk step6  0.000000 | walk topk step7    0.000000
        L3  remap unique     0.000255 | remap populate     0.000977 | remap mapnode       0.000000 | remap mapedge     0.000175
        L3  cache get_index  0.000379 | cache copy_index   0.000000 | cache extract_miss  0.000000
        L3  cache copy_miss  0.000000 | cache combine_miss 0.022728 | cache combine cache 0.003209 | cache combine remote 0.003120
        L3  label extract  0.000029
    [Init Profiler Level 1]
        L1  init    12.8851 | sampler init    30.7738 | trainer init 18.5970
    [Init Profiler Level 2]
        L2  load ds        23.3843 | init queue           0.0000
        L2  presample      18.3603 | build interal ds     1.9120
        L2  build cache    18.5959
    [Init Profiler Level 3]
        L3  load dataset: mmap    12.8829 | copy         0.0000
        L3  dist queue: alloc      0.0000 | pin          0.0000 | push     0.0000
        L3  presample: init        0.6700
        L3  presample: sample      8.0171 | copy         0.6439
        L3  presample: count       6.3125 | sort         0.6757
        L3  presample: reset       0.0019 | get rank     0.0881
        L3  internal: cuda ctx     0.0001 | cuda stream     0.0000
[Worker 1/4] Started with PID 40054(Tesla V100-SXM2-16GB)
worker 1 at process 40054
[Worker 1] run for 5 epochs with 250 steps
[Train  Worker 1] Avg Epoch 12.8182 | Sample 3.9494 | Copy 5.9298 | Train Total (Profiler) 2.9144
[Worker 3/4] Started with PID 40059(Tesla V100-SXM2-16GB)
worker 3 at process 40059
[Worker 3] run for 5 epochs with 250 steps
[Train  Worker 3] Avg Epoch 12.8182 | Sample 3.9415 | Copy 5.9322 | Train Total (Profiler) 2.9196
[Worker 2/4] Started with PID 40056(Tesla V100-SXM2-16GB)
worker 2 at process 40056
[Worker 2] run for 5 epochs with 250 steps
[Train  Worker 2] Avg Epoch 12.8182 | Sample 3.9446 | Copy 5.9358 | Train Total (Profiler) 2.9126
[Worker 0/4] Started with PID 40052(Tesla V100-SXM2-16GB)
worker 0 at process 40052
[Worker 0] run for 5 epochs with 250 steps
Epoch 00000 | Epoch Time 14.0109 | Sample 3.9706 | Copy 5.9829 | Total Train(Profiler) 4.0314
Epoch 00001 | Epoch Time 12.8289 | Sample 3.9479 | Copy 5.9363 | Total Train(Profiler) 2.9220
Epoch 00002 | Epoch Time 12.8241 | Sample 3.9449 | Copy 5.9377 | Total Train(Profiler) 2.9182
Epoch 00003 | Epoch Time 12.7827 | Sample 3.9479 | Copy 5.9298 | Total Train(Profiler) 2.8814
Epoch 00004 | Epoch Time 12.8371 | Sample 3.9507 | Copy 5.9281 | Total Train(Profiler) 2.9327
[Train  Worker 0] Avg Epoch 12.8182 | Sample 3.9479 | Copy 5.9330 | Train Total (Profiler) 2.9136
|===========================================================================|
|                  PyTorch CUDA memory summary, device ID 0                 |
|---------------------------------------------------------------------------|
|            CUDA OOMs: 0            |        cudaMalloc retries: 0         |
|===========================================================================|
|        Metric         | Cur Usage  | Peak Usage | Tot Alloc  | Tot Freed  |
|---------------------------------------------------------------------------|
| Allocated memory      |   22675 KB |  337171 KB |    1127 GB |    1127 GB |
|       from large pool |   13958 KB |  334394 KB |    1108 GB |    1108 GB |
|       from small pool |    8717 KB |   11034 KB |      18 GB |      18 GB |
|---------------------------------------------------------------------------|
| Active memory         |   22676 KB |  337171 KB |    1127 GB |    1127 GB |
|       from large pool |   13958 KB |  334394 KB |    1108 GB |    1108 GB |
|       from small pool |    8718 KB |   11034 KB |      18 GB |      18 GB |
|---------------------------------------------------------------------------|
| GPU reserved memory   |  417792 KB |  417792 KB |  417792 KB |       0 B  |
|       from large pool |  403456 KB |  403456 KB |  403456 KB |       0 B  |
|       from small pool |   14336 KB |   14336 KB |   14336 KB |       0 B  |
|---------------------------------------------------------------------------|
| Non-releasable memory |   42860 KB |  336351 KB |    1031 GB |    1031 GB |
|       from large pool |   41338 KB |  333899 KB |    1011 GB |    1011 GB |
|       from small pool |    1522 KB |    4523 KB |      20 GB |      20 GB |
|---------------------------------------------------------------------------|
| Allocations           |      43    |      62    |  180039    |  179996    |
|       from large pool |       7    |      16    |   63753    |   63746    |
|       from small pool |      36    |      47    |  116286    |  116250    |
|---------------------------------------------------------------------------|
| Active allocs         |      44    |      62    |  180039    |  179995    |
|       from large pool |       7    |      16    |   63753    |   63746    |
|       from small pool |      37    |      47    |  116286    |  116249    |
|---------------------------------------------------------------------------|
| GPU reserved segments |      14    |      14    |      14    |       0    |
|       from large pool |       7    |       7    |       7    |       0    |
|       from small pool |       7    |       7    |       7    |       0    |
|---------------------------------------------------------------------------|
| Non-releasable allocs |      19    |      28    |   76271    |   76252    |
|       from large pool |       5    |      11    |   39093    |   39088    |
|       from small pool |      14    |      21    |   37178    |   37164    |
|---------------------------------------------------------------------------|
| Oversize allocations  |       0    |       0    |       0    |       0    |
|---------------------------------------------------------------------------|
| Oversize GPU segments |       0    |       0    |       0    |       0    |
|===========================================================================|

test_result:sample_time=nan
test_result:epoch_time:sample_total=3.9479
test_result:epoch_time:copy_time=5.9330
test_result:convert_time=0.1195
test_result:train_time=2.7941
test_result:epoch_time:train_total=2.9136
test_result:cache_percentage=0.0200
test_result:cache_hit_rate=1.0000
test_result:epoch_time:total=12.8182
test_result:run_time=65.2870

